65627.25
0 2 123 122 120 94 95 91 92 93 67 66 65 64 63 62 69 68 88 89 90 96 97 87 98 99 85 86 83 84 82 81 80 79 106 107 78 77 70 71 72 73 74 75 76 112 111 110 109 108 113 114 115 105 104 103 102 100 101 116 117 118 119 121 3 4 20 19 21 22 23 24 25 26 27 40 41 43 42 44 45 46 47 48 49 50 51 39 28 38 52 53 54 55 56 57 58 59 60 61 37 36 35 34 33 32 31 30 29 17 16 15 18 14 13 12 11 10 9 8 7 6 5 1